1	10,0	2	0,0	3	11,7	4	17,8	5	0,0	6	0,0	7	0,0	8	0,0	9	0,0	10	10,0
1	10,0	2	19,3	3	0,0	4	5,5	5	18,0	6	0,0	7	0,0	8	14,4	9	0,0	10	0,0
1	0,0	2	0,0	3	7,9	4	0,0	5	8,5	6	16,3	7	0,0	8	0,0	9	8,9	10	0,0
1	6,7	2	0,0	3	9,6	4	0,0	5	0,0	6	0,0	7	11,0	8	0,0	9	0,0	10	0,0
1	0,0	2	14,1	3	0,0	4	14,9	5	18,1	6	0,0	7	0,0	8	13,9	9	0,0	10	0,0
1	0,0	2	11,3	3	19,8	4	0,0	5	19,5	6	17,8	7	0,0	8	0,0	9	15,3	10	0,0
1	0,0	2	10,7	3	0,0	4	13,6	5	0,0	6	0,0	7	9,4	8	0,0	9	0,0	10	15,3
1	15,0	2	0,0	3	11,4	4	0,0	5	0,0	6	0,0	7	0,0	8	0,0	9	0,0	10	14,5
1	0,0	2	11,6	3	0,0	4	11,9	5	6,5	6	0,0	7	0,0	8	13,3	9	0,0	10	0,0
1	0,0	2	0,0	3	11,2	4	0,0	5	0,0	6	13,5	7	9,8	8	0,0	9	0,0	10	17,3
																			
1	3,6	2	4,3	3	4,2	4	4,1	5	4,4	6	4,7	7	2,8	8	3,9	9	2,9	10	3,1
